10 10 1
3 10 1 1 1 2 2 3 4 5 3 4 6 8 4 7 9 16 5 2 3 4 6 3 5 10 7 1 2 4 8 7 8 9 9 2 9 13 10 2 5 10 10 1 3 4 5 2 1 1 2 3 1 1 2 4 1 3 5 5 1 4 7 6 1 8 12 7 3 10 15 8 2 4 5 9 3 11 22 10 1 4 6 10 1 2 3 6 2 1 2 4 3 1 5 8 4 1 1 2 5 4 5 9 6 4 6 9 7 8 9 12 8 2 5 7 9 5 10 15 10 2 3 4
3 10 1 1 2 4 2 4 10 17 3 2 4 6 4 4 5 9 5 3 9 18 6 6 8 14 7 3 4 7 8 2 15 22 9 3 8 16 10 2 4 5 10 1 3 4 5 2 4 8 9 3 2 7 8 4 1 1 2 5 8 9 16 6 2 6 9 7 1 1 2 8 9 10 15 9 4 7 10 10 1 1 2 10 1 4 6 10 2 6 11 14 3 1 2 3 4 2 7 8 5 4 5 6 6 2 3 6 7 3 5 10 8 12 14 15 9 1 9 11 10 1 2 4 
3 10 1 1 8 12 2 3 5 10 3 7 8 9 4 1 9 10 5 3 4 6 6 1 3 6 7 1 5 7 8 2 3 5 9 3 8 11 10 1 1 2 10 1 2 9 11 2 1 3 4 3 3 6 8 4 1 1 2 5 1 2 3 6 4 6 7 7 3 4 7 8 1 1 2 9 1 7 14 10 1 2 3 10 1 6 7 9 2 1 1 2 3 3 8 16 4 2 5 9 5 1 4 7 6 5 9 17 7 1 1 2 8 1 2 3 9 1 3 5 10 3 4 8 
3 10 1 3 5 6 2 5 10 12 3 3 6 12 4 2 4 7 5 7 9 13 6 2 5 9 7 1 1 2 8 1 7 10 9 1 1 2 10 5 6 10 10 1 2 4 8 2 1 2 4 3 2 3 6 4 6 8 9 5 5 7 11 6 3 4 8 7 3 6 12 8 8 9 10 9 7 8 14 10 2 4 6 10 1 4 7 13 2 1 3 6 3 7 12 22 4 1 1 2 5 5 6 11 6 3 5 8 7 2 8 10 8 1 3 6 9 1 5 9 10 1 2 3 
3 10 1 2 7 11 2 4 10 11 3 3 4 5 4 4 5 6 5 3 6 7 6 1 3 6 7 4 5 6 8 5 15 22 9 1 2 3 10 1 6 11 10 1 1 5 7 2 4 6 12 3 1 3 6 4 3 9 13 5 1 8 10 6 1 2 3 7 7 8 9 8 5 6 8 9 1 1 2 10 2 7 12 10 1 5 6 11 2 1 1 2 3 3 4 6 4 1 1 2 5 7 10 14 6 2 4 7 7 1 3 4 8 6 11 15 9 9 13 20 10 2 9 18 
3 10 1 3 8 9 2 3 9 12 3 8 10 20 4 7 8 9 5 3 4 7 6 1 2 3 7 3 7 13 8 4 8 16 9 2 3 4 10 1 10 13 10 1 4 7 14 2 1 3 6 3 10 12 23 4 3 5 9 5 2 4 8 6 2 3 5 7 4 6 10 8 1 9 15 9 1 2 4 10 1 15 30 10 1 3 4 7 2 3 7 11 3 2 3 6 4 1 6 10 5 2 3 5 6 2 4 7 7 1 1 2 8 3 5 6 9 1 1 2 10 4 11 16 
3 10 1 1 1 2 2 4 7 13 3 3 8 14 4 2 3 6 5 2 4 7 6 1 9 15 7 2 4 6 8 3 13 26 9 8 10 13 10 5 7 9 10 1 1 3 4 2 1 8 15 3 1 1 2 4 1 2 4 5 2 3 6 6 4 6 8 7 10 11 21 8 1 2 3 9 7 13 20 10 2 3 6 10 1 3 5 6 2 1 4 5 3 1 2 3 4 1 1 2 5 1 2 4 6 1 1 2 7 5 8 14 8 4 14 21 9 1 5 8 10 3 7 11 
3 10 1 2 5 7 2 1 7 8 3 8 11 17 4 1 3 6 5 1 2 3 6 3 9 13 7 2 8 11 8 3 5 9 9 6 12 15 10 5 8 11 10 1 7 8 16 2 2 3 5 3 5 10 20 4 5 7 12 5 4 5 6 6 3 13 18 7 3 4 5 8 2 6 9 9 3 8 13 10 1 4 8 10 1 2 6 7 2 1 2 4 3 6 13 15 4 1 5 9 5 2 4 6 6 2 3 4 7 1 5 10 8 5 7 14 9 7 9 15 10 1 5 7 
3 10 1 2 3 6 2 6 9 13 3 1 1 2 4 1 3 6 5 4 8 12 6 1 1 2 7 1 6 11 8 6 7 11 9 4 5 9 10 1 4 6 10 1 2 4 8 2 2 6 8 3 1 2 4 4 1 5 6 5 1 7 13 6 2 3 4 7 1 1 2 8 3 9 18 9 5 6 8 10 5 7 13 10 1 1 8 12 2 3 5 6 3 2 4 5 4 3 8 13 5 5 6 12 6 1 1 2 7 1 2 3 8 2 3 5 9 6 10 13 10 9 12 14 
3 10 1 1 4 6 2 2 3 4 3 1 1 2 4 5 6 7 5 6 7 10 6 1 1 2 7 1 2 3 8 2 6 9 9 10 20 29 10 5 6 8 10 1 2 3 4 2 1 1 2 3 2 8 12 4 1 1 2 5 5 9 12 6 2 4 8 7 1 1 2 8 1 4 6 9 7 17 30 10 2 15 19 10 1 8 9 15 2 1 2 4 3 1 4 8 4 1 2 4 5 2 3 4 6 4 5 7 7 1 2 4 8 2 4 7 9 5 10 16 10 7 23 27 
